
<<< setup

Tried aggregator 1 time.
LP Presolve eliminated 109 rows and 83 columns.
Reduced LP has 2 rows, 12 columns, and 12 nonzeros.
Presolve time = 0.00 sec. (0.04 ticks)

Iteration log . . .
Iteration:     1   Dual objective     =          1292.081382
main returns 0

<<< main


<<< done

